NAME: Random_90_1
ELLAPSED_TIME_(ms): 1
TOUR_SIZE: 2664.4429
TOUR_SECTION
0
49
24
54
84
73
46
23
83
8
31
56
20
78
62
75
13
17
74
63
47
66
55
44
19
50
27
25
72
85
69
10
48
4
87
67
14
58
6
34
11
42
79
76
65
59
16
29
39
9
86
37
38
2
28
22
51
81
33
77
52
57
53
12
3
30
45
64
1
18
15
40
70
89
68
21
43
26
61
71
36
32
7
5
80
35
82
41
88
60
0
EOF
